Name: Fis0506-1
Courses: 4
Rooms: 6
Days: 5
Periods_per_day: 6
Curricula: 1
Constraints: 12

COURSES:
c0001 t000 6 4 130
c0002 t001 6 4 75
c0004 t002 7 3 117
c0005 t003 3 3 75

ROOMS:
B	200
C	100
E	9
F	30
G	20
S	30

CURRICULA:
q000  4 c0001 c0002 c0004 c0005 

UNAVAILABILITY_CONSTRAINTS:
c0001 4 0
c0001 4 1
c0001 4 2
c0001 4 3
c0001 4 4
c0001 4 5
c0004 0 0
c0004 0 1
c0004 0 2
c0004 0 3
c0004 0 4
c0004 0 5

END.
